40
    70    43    42    48     8    70    18    57    49    72    92    11   100    68    74    46     1    30    52    97    16    84    93     3    38     8    44     8    89    34    26    57    19    48    41    99     6    87    68    86
     8     4     6     6     2     3     1     3     6     4     9    10     7     1     9     7     4     8     4     8     1     4     9     3     2     1     3     6     8     1    10     3     1     9     4     7     9     7     6     5
    76   782     0     0   231   340   381     3     0   730    93     0   273   114     0     0     0     0     0     0   624     0   588     0   157     0     0     0     0    21     0   760   506    69     0     0     0   127     0   184
